\ Model plant_location
\ LP format - for model browsing. Use MPS format to capture full model detail.
Minimize
  1000 y[0] + 1200 y[1] + 1400 y[2] + 0.3517215283597537 x[0,0,0]
   + 2.647347985681034 x[0,1,0] + 3.928112694523105 x[0,2,0]
   + 5.67653558826718 x[1,0,0] + 6.109682286817637 x[1,1,0]
   + 3.691438211364865 x[1,2,0] + 6.524803229828201 x[2,0,0]
   + 7.878941919909195 x[2,1,0] + 5.903234988624359 x[2,2,0]
   + 4.118573440430331 x[3,0,0] + 5.328673370839397 x[3,1,0]
   + 3.616696372860891 x[3,2,0] + 1.481105740267916 x[4,0,0]
   + 3.900129641625651 x[4,1,0] + 3.921395457987575 x[4,2,0]
Subject To
 customer_assignment[0,0]: x[0,0,0] + x[0,1,0] + x[0,2,0]
   >= 11.62434536366324
 customer_assignment[1,0]: x[1,0,0] + x[1,1,0] + x[1,2,0]
   >= 9.388243586349924
 customer_assignment[2,0]: x[2,0,0] + x[2,1,0] + x[2,2,0]
   >= 9.471828247736545
 customer_assignment[3,0]: x[3,0,0] + x[3,1,0] + x[3,2,0]
   >= 8.927031377843829
 customer_assignment[4,0]: x[4,0,0] + x[4,1,0] + x[4,2,0]
   >= 10.86540762932468
 open_plant[0,0,0]: - 20 y[0] + x[0,0,0] <= 0
 open_plant[0,1,0]: - 20 y[1] + x[0,1,0] <= 0
 open_plant[0,2,0]: - 20 y[2] + x[0,2,0] <= 0
 open_plant[1,0,0]: - 20 y[0] + x[1,0,0] <= 0
 open_plant[1,1,0]: - 20 y[1] + x[1,1,0] <= 0
 open_plant[1,2,0]: - 20 y[2] + x[1,2,0] <= 0
 open_plant[2,0,0]: - 20 y[0] + x[2,0,0] <= 0
 open_plant[2,1,0]: - 20 y[1] + x[2,1,0] <= 0
 open_plant[2,2,0]: - 20 y[2] + x[2,2,0] <= 0
 open_plant[3,0,0]: - 20 y[0] + x[3,0,0] <= 0
 open_plant[3,1,0]: - 20 y[1] + x[3,1,0] <= 0
 open_plant[3,2,0]: - 20 y[2] + x[3,2,0] <= 0
 open_plant[4,0,0]: - 20 y[0] + x[4,0,0] <= 0
 open_plant[4,1,0]: - 20 y[1] + x[4,1,0] <= 0
 open_plant[4,2,0]: - 20 y[2] + x[4,2,0] <= 0
Bounds
Binaries
 y[0] y[1] y[2]
End
